

*************************************************************

   NEOS Server Version 6.0
   Job#     : 15893324
   Password : nrSfZbAL
   User     : 
   Solver   : milp:Gurobi:AMPL
   Start    : 2025-04-16 08:51:05
   End      : 2025-04-16 08:51:07
   Host     : prod-sub-1.neos-server.org

   Disclaimer:

   This information is provided without any express or
   implied warranty. In particular, there is no warranty
   of any kind concerning the fitness of this
   information for any particular purpose.

   Announcements:
*************************************************************
You are using the solver gurobi_ampl.
Checking ampl.mod for gurobi_options...
Checking ampl.com for gurobi_options...
Executing AMPL.
processing data.
processing commands.
Executing on prod-exec-6.neos-server.org
C = 5

set N := 1 2 3 4;

:   P    W    :=
1    2   1
2    8   2
3   15   3
4   12   4
;

subject to C_capacity:
	X[1] + 2*X[2] + 3*X[3] + 4*X[4] <= 5;

maximize objective_function:
	2*X[1] + 8*X[2] + 15*X[3] + 12*X[4];


"option presolve 10;" used, but "option presolve 2;" would suffice.
4 variables:
	2 binary variables
	2 integer variables
1 constraint, all linear; 4 nonzeros
	1 inequality constraint
1 linear objective; 4 nonzeros.

Gurobi 12.0.1:   tech:threads = 4
Set parameter LogToConsole to value 1
  tech:outlev = 1

AMPL MP initial flat model has 4 variables (2 integer, 2 binary);
Objectives: 1 linear; 
Constraints:  1 linear;

AMPL MP final model has 4 variables (2 integer, 2 binary);
Objectives: 1 linear; 
Constraints:  1 linear;


Set parameter InfUnbdInfo to value 1
Gurobi Optimizer version 12.0.1 build v12.0.1rc0 (linux64 - "Rocky Linux 8.10 (Green Obsidian)")

CPU model: Intel(R) Xeon(R) Gold 6140 CPU @ 2.30GHz, instruction set [SSE2|AVX|AVX2|AVX512]
Thread count: 36 physical cores, 72 logical processors, using up to 4 threads

Non-default parameters:
InfUnbdInfo  1
Threads  4

Optimize a model with 1 rows, 4 columns and 4 nonzeros
Model fingerprint: 0x3b2e6beb
Variable types: 0 continuous, 4 integer (0 binary)
Coefficient statistics:
  Matrix range     [1e+00, 4e+00]
  Objective range  [2e+00, 2e+01]
  Bounds range     [1e+00, 5e+00]
  RHS range        [5e+00, 5e+00]
Found heuristic solution: objective 19.0000000
Presolve removed 1 rows and 4 columns
Presolve time: 0.00s
Presolve: All rows and columns removed

Explored 0 nodes (0 simplex iterations) in 0.00 seconds (0.00 work units)
Thread count was 1 (of 72 available processors)

Solution count 2: 23 19 

Optimal solution found (tolerance 1.00e-04)
Best objective 2.300000000000e+01, best bound 2.300000000000e+01, gap 0.0000%
Gurobi 12.0.1: optimal solution; objective 23
0 simplex iterations
objective_function = 23

X [*] :=
1  0
2  1
3  1
4  0
;

NEOS Server Home
